SDVRP instances/p03/p03_1050_tsplib0_split0.vrp
NAME:.\SDVRP_split
BEST_KNOWN: 0
COMMENT: 0
DIMENSION: 472
CAPACITY: 200
EDGE_WEIGHT_FORMAT: FUNCTION
EDGE_WEIGHT_TYPE: EXACT_2D
NODE_COORD_SECTION
1 0.00000 0.00000
2 6 14
3 6 14
4 6 14
5 6 14
6 6 14
7 6 14
8 0 -18
9 0 -18
10 0 -18
11 20 10
12 20 10
13 20 10
14 20 10
15 20 10
16 20 10
17 20 -15
18 20 -15
19 20 -15
20 20 -15
21 -20 -5
22 -20 -5
23 -20 -5
24 -20 -5
25 -10 -5
26 -10 -5
27 -10 -5
28 -10 -5
29 -10 -5
30 -10 -5
31 -15 15
32 -15 15
33 -15 15
34 -15 15
35 -15 15
36 -15 15
37 -15 15
38 -25 8
39 -25 8
40 -25 8
41 -25 8
42 -25 8
43 20 25
44 20 25
45 20 25
46 20 25
47 20 25
48 -5 25
49 -5 25
50 -15 30
51 -15 30
52 -15 30
53 -15 30
54 15 0
55 15 0
56 15 0
57 -5 -10
58 -5 -10
59 -5 -10
60 -5 -10
61 -5 -10
62 -5 -10
63 -20 -25
64 -20 -25
65 -20 -25
66 -5 -30
67 -5 -30
68 -5 -30
69 -5 -30
70 -5 -30
71 -5 -30
72 -25 -15
73 -25 -15
74 -25 -15
75 -30 -5
76 -30 -5
77 -30 -5
78 -30 -5
79 -15 5
80 -15 5
81 -20 25
82 -20 25
83 -20 25
84 -20 25
85 -20 25
86 -20 25
87 10 30
88 10 30
89 10 30
90 10 30
91 10 -15
92 10 -15
93 10 -15
94 10 -15
95 10 -15
96 10 -25
97 10 -25
98 10 -25
99 20 -30
100 20 -30
101 20 -30
102 20 -30
103 30 0
104 30 0
105 30 0
106 30 0
107 30 0
108 30 -15
109 30 -15
110 30 -15
111 30 -15
112 10 -5
113 10 -5
114 10 -5
115 10 -5
116 10 -5
117 10 -5
118 10 -5
119 0 5
120 0 5
121 6 2
122 6 2
123 6 2
124 29 7
125 29 7
126 29 7
127 5 25
128 5 25
129 5 25
130 5 25
131 5 25
132 -4 17
133 -4 17
134 -4 17
135 -4 17
136 -4 17
137 -4 17
138 0 34
139 0 34
140 0 34
141 0 34
142 18 17
143 18 17
144 18 17
145 18 17
146 18 17
147 30 20
148 30 20
149 30 20
150 30 20
151 30 20
152 30 20
153 28 30
154 28 30
155 28 30
156 28 30
157 28 30
158 28 30
159 -33 25
160 -33 25
161 -33 25
162 -33 25
163 -33 25
164 -33 25
165 -15 -15
166 -15 -15
167 -15 -15
168 -30 -30
169 -30 -30
170 -30 -30
171 -30 -30
172 -30 -30
173 -30 -30
174 25 -23
175 25 -23
176 25 -23
177 25 -23
178 25 -23
179 25 -23
180 5 -10
181 5 -10
182 5 -10
183 5 -10
184 5 -10
185 7 -28
186 7 -28
187 7 -28
188 7 -28
189 7 -28
190 -11 -23
191 -11 -23
192 -11 -23
193 -11 -23
194 -12 -32
195 -12 -32
196 -12 -32
197 -24 -21
198 -24 -21
199 -24 -21
200 -24 -21
201 -24 -21
202 -29 3
203 -29 3
204 -29 3
205 -33 13
206 -33 13
207 -27 21
208 -27 21
209 -27 21
210 -27 21
211 -27 21
212 -27 21
213 -27 21
214 -22 17
215 -22 17
216 -22 17
217 -22 17
218 -29 33
219 -29 33
220 -29 33
221 -29 33
222 -29 33
223 -29 33
224 12 12
225 12 12
226 12 12
227 12 12
228 12 12
229 12 12
230 12 12
231 14 23
232 14 23
233 14 23
234 14 23
235 14 23
236 -8 8
237 -8 8
238 -8 8
239 -8 8
240 2 -4
241 2 -4
242 2 -4
243 2 -4
244 22 -6
245 22 -6
246 22 -6
247 22 -6
248 22 -6
249 28 -12
250 28 -12
251 28 -12
252 28 -12
253 28 -12
254 28 -12
255 28 -12
256 28 -12
257 18 -23
258 18 -23
259 18 -23
260 18 -23
261 18 -23
262 18 -23
263 18 -23
264 -3 -23
265 -3 -23
266 -3 -23
267 1 -9
268 1 -9
269 1 -9
270 1 -9
271 1 -9
272 1 -9
273 -14 -11
274 -14 -11
275 -14 -11
276 -18 -1
277 -18 -1
278 -18 -1
279 -18 -1
280 -18 -1
281 -23 -11
282 -23 -11
283 -23 -11
284 -11 23
285 -11 23
286 -8 34
287 -8 34
288 -8 34
289 -8 34
290 -20 42
291 -20 42
292 -20 42
293 27 42
294 27 42
295 27 42
296 27 42
297 27 42
298 14 38
299 14 38
300 14 38
301 14 38
302 14 38
303 14 38
304 32 -30
305 32 -30
306 32 -30
307 32 -30
308 32 -30
309 32 -30
310 21 4
311 21 4
312 21 4
313 21 4
314 21 4
315 2 12
316 2 12
317 2 12
318 2 12
319 2 12
320 2 12
321 2 12
322 2 21
323 2 21
324 2 21
325 2 21
326 2 21
327 2 21
328 2 21
329 22 33
330 22 33
331 22 33
332 22 33
333 22 33
334 22 33
335 12 -19
336 12 -19
337 12 -19
338 12 -19
339 9 -18
340 9 -18
341 9 -18
342 9 -18
343 9 -18
344 9 -18
345 11 -22
346 11 -22
347 11 -22
348 11 -22
349 11 -22
350 11 -22
351 11 -22
352 11 -22
353 14 -24
354 14 -24
355 14 -24
356 14 7
357 14 7
358 14 7
359 14 7
360 18 8
361 18 8
362 18 8
363 18 8
364 18 8
365 26 17
366 26 17
367 26 17
368 26 17
369 26 17
370 26 17
371 26 17
372 22 13
373 22 13
374 22 13
375 22 13
376 22 13
377 21 2
378 21 2
379 21 2
380 21 2
381 20 19
382 20 19
383 20 19
384 20 19
385 -20 12
386 -20 12
387 -21 2
388 -21 2
389 -21 2
390 -21 2
391 -21 2
392 -24 -4
393 -24 -4
394 -24 -4
395 -24 -4
396 -19 -13
397 -19 -13
398 -19 -13
399 -19 -13
400 -19 -13
401 -19 -13
402 -19 -13
403 -31 -17
404 -31 -17
405 -31 -17
406 -7 -17
407 -7 -17
408 -7 -17
409 -7 -17
410 -7 -17
411 -7 -17
412 -7 -17
413 -9 17
414 -9 17
415 -9 17
416 -9 17
417 -9 0
418 -9 0
419 -9 0
420 -9 0
421 -9 0
422 -9 0
423 -4 32
424 -4 32
425 -4 32
426 -4 32
427 -4 32
428 -4 32
429 -20 -16
430 -20 -16
431 -20 -16
432 -20 -16
433 -20 -16
434 -13 -13
435 -13 -13
436 -13 -13
437 -13 -13
438 -13 -13
439 -17 -11
440 -17 -11
441 -17 -11
442 -17 -11
443 -9 -8
444 -9 -8
445 -9 -8
446 -9 -8
447 -9 -8
448 -9 -8
449 -10 -11
450 -10 -11
451 -10 -11
452 -10 -11
453 -10 -11
454 -13 -8
455 -13 -8
456 -13 -8
457 -13 -8
458 -10 -14
459 -10 -14
460 -10 -14
461 -16 -14
462 -16 -14
463 -16 -14
464 -16 -14
465 -15 -9
466 -15 -9
467 -15 -9
468 -17 -17
469 -17 -17
470 -17 -17
471 -17 -17
472 -17 -17
DEMAND_SECTION
1 0
2 40
3 40
4 2
5 2
6 2
7 2
8 40
9 10
10 1
11 20
12 10
13 2
14 2
15 2
16 2
17 40
18 20
19 2
20 2
21 40
22 40
23 10
24 2
25 40
26 40
27 2
28 2
29 2
30 2
31 40
32 10
33 2
34 2
35 2
36 2
37 1
38 20
39 2
40 2
41 2
42 2
43 20
44 10
45 2
46 2
47 2
48 20
49 2
50 40
51 40
52 2
53 2
54 40
55 10
56 1
57 40
58 10
59 2
60 2
61 2
62 1
63 40
64 20
65 1
66 40
67 20
68 10
69 2
70 2
71 2
72 40
73 2
74 1
75 20
76 2
77 2
78 2
79 40
80 20
81 40
82 40
83 2
84 2
85 2
86 2
87 40
88 20
89 2
90 1
91 20
92 2
93 2
94 2
95 2
96 40
97 20
98 10
99 40
100 20
101 10
102 2
103 40
104 20
105 2
106 2
107 2
108 40
109 40
110 2
111 1
112 40
113 20
114 10
115 2
116 2
117 2
118 2
119 20
120 2
121 40
122 40
123 2
124 20
125 10
126 2
127 20
128 2
129 2
130 2
131 2
132 40
133 40
134 2
135 2
136 2
137 2
138 40
139 40
140 2
141 2
142 40
143 40
144 2
145 2
146 2
147 20
148 10
149 2
150 2
151 2
152 1
153 40
154 40
155 2
156 2
157 2
158 1
159 40
160 10
161 2
162 2
163 2
164 2
165 40
166 40
167 2
168 40
169 10
170 2
171 2
172 2
173 2
174 40
175 10
176 2
177 2
178 2
179 2
180 40
181 40
182 2
183 2
184 2
185 20
186 10
187 2
188 2
189 1
190 20
191 2
192 2
193 1
194 40
195 20
196 10
197 40
198 20
199 10
200 2
201 1
202 40
203 40
204 10
205 40
206 2
207 40
208 10
209 2
210 2
211 2
212 2
213 1
214 40
215 10
216 2
217 2
218 40
219 40
220 2
221 2
222 2
223 1
224 40
225 20
226 2
227 2
228 2
229 2
230 1
231 40
232 20
233 10
234 2
235 1
236 40
237 20
238 10
239 2
240 20
241 2
242 2
243 2
244 40
245 40
246 10
247 2
248 1
249 40
250 20
251 10
252 2
253 2
254 2
255 2
256 1
257 40
258 20
259 10
260 2
261 2
262 2
263 2
264 40
265 2
266 2
267 40
268 20
269 10
270 2
271 2
272 2
273 40
274 10
275 2
276 40
277 2
278 2
279 2
280 1
281 40
282 40
283 10
284 40
285 1
286 40
287 2
288 2
289 1
290 40
291 2
292 1
293 40
294 2
295 2
296 2
297 2
298 40
299 10
300 2
301 2
302 2
303 2
304 40
305 40
306 2
307 2
308 2
309 2
310 20
311 2
312 2
313 2
314 1
315 40
316 40
317 10
318 2
319 2
320 2
321 2
322 40
323 40
324 2
325 2
326 2
327 2
328 1
329 40
330 40
331 10
332 2
333 2
334 1
335 40
336 40
337 10
338 1
339 40
340 40
341 2
342 2
343 2
344 1
345 40
346 40
347 10
348 2
349 2
350 2
351 2
352 1
353 20
354 2
355 2
356 40
357 2
358 2
359 2
360 40
361 20
362 2
363 2
364 2
365 40
366 20
367 10
368 2
369 2
370 2
371 1
372 40
373 20
374 2
375 2
376 1
377 40
378 40
379 2
380 2
381 40
382 20
383 10
384 2
385 40
386 2
387 40
388 20
389 10
390 2
391 2
392 40
393 20
394 10
395 1
396 40
397 40
398 10
399 2
400 2
401 2
402 2
403 40
404 40
405 2
406 40
407 40
408 10
409 2
410 2
411 2
412 2
413 40
414 40
415 2
416 2
417 40
418 40
419 2
420 2
421 2
422 2
423 20
424 2
425 2
426 2
427 2
428 1
429 40
430 40
431 2
432 2
433 1
434 40
435 20
436 2
437 2
438 2
439 20
440 10
441 2
442 2
443 40
444 40
445 10
446 2
447 2
448 1
449 40
450 20
451 10
452 2
453 2
454 40
455 40
456 2
457 1
458 40
459 40
460 1
461 40
462 10
463 2
464 2
465 40
466 40
467 1
468 20
469 2
470 2
471 2
472 2
DEPOT_SECTION
1
-1
EOF