SDVRP instances/p03/p03_1050_tsplib0_split0.sol
471 -4 6 3 2 1 5 323 322 321 325 326 324 327 118 119 -9 7 8 264 265 263 184 186 185 187 188 97 95 96 -18 17 16 19 173 174 257 262 256 260 258 259 261 -22 23 21 20 393 391 394 279 278 276 275 277 -27 28 26 24 29 25 417 418 419 416 -32 31 36 34 35 33 30 214 213 385 384 78 -46 44 45 43 42 329 331 333 332 328 330 89 88 86 87 -47 48 49 50 51 52 283 284 413 415 414 -53 55 54 378 379 376 377 309 311 355 -58 57 59 56 451 452 448 449 445 442 443 -60 61 409 408 406 405 410 411 407 457 458 459 -63 64 62 167 172 170 171 169 168 196 198 197 199 200 432 430 431 -68 70 69 65 67 66 193 195 194 189 192 190 191 -79 41 39 40 38 37 201 203 202 387 386 -84 82 81 85 83 80 207 212 206 204 205 388 390 389 -112 117 115 116 114 111 92 94 93 90 91 338 339 -113 109 107 110 108 252 249 255 248 253 251 250 254 -120 121 122 314 315 319 316 317 320 318 -127 128 130 129 126 139 140 138 137 423 422 426 424 427 425 287 285 286 288 -131 132 135 136 133 134 412 238 236 237 235 -141 147 151 149 148 146 150 368 370 367 364 365 369 366 373 371 -157 155 156 153 152 154 292 294 296 293 295 298 297 299 300 302 301 -178 177 175 176 304 306 305 308 303 307 101 100 98 99 352 353 354 -215 216 208 209 211 210 162 159 163 161 160 158 218 222 219 221 217 220 291 289 290 -228 227 224 223 372 374 375 13 14 15 12 10 11 359 362 361 363 360 356 357 358 -229 226 225 144 143 145 142 381 383 380 382 233 234 230 231 232 -240 241 242 239 182 181 183 180 179 268 266 270 271 267 269 -247 245 246 243 244 102 105 103 104 106 123 125 124 310 312 313 -272 274 273 460 429 428 469 468 471 470 467 -281 280 282 398 399 396 395 400 397 401 440 439 -336 337 334 335 347 349 348 345 351 350 344 346 341 340 342 343 -420 421 392 74 75 76 77 404 403 402 73 72 71 441 438 -444 447 446 450 435 436 437 434 433 166 164 165 463 461 462 -456 455 454 453 464 466 465 0 





OBJ=
2063.418
BEST_KNOWN=
0.000